(set-info :category "industrial")
(set-info :status sat)
(declare-fun x00 () (_ BitVec 8))
(declare-fun x02 () (_ BitVec 8))
(declare-fun x04 () (_ BitVec 8))
(declare-fun x07 () (_ BitVec 8))
(declare-fun x10 () (_ BitVec 8))
(declare-fun x13 () (_ BitVec 8))
(declare-fun x15 () (_ BitVec 8))
(declare-fun x16 () (_ BitVec 8))
(declare-fun x17 () (_ BitVec 8))
(declare-fun x18 () (_ BitVec 8))
(declare-fun x20 () (_ BitVec 8))
(declare-fun x21 () (_ BitVec 8))
(declare-fun x22 () (_ BitVec 8))
(declare-fun x24 () (_ BitVec 8))
(declare-fun x25 () (_ BitVec 8))
(declare-fun x26 () (_ BitVec 8))
(declare-fun x30 () (_ BitVec 8))
(declare-fun x32 () (_ BitVec 8))
(declare-fun x33 () (_ BitVec 8))
(declare-fun x36 () (_ BitVec 8))
(declare-fun x37 () (_ BitVec 8))
(declare-fun x40 () (_ BitVec 8))
(declare-fun x41 () (_ BitVec 8))
(declare-fun x43 () (_ BitVec 8))
(declare-fun x44 () (_ BitVec 8))
(declare-fun x45 () (_ BitVec 8))
(declare-fun x47 () (_ BitVec 8))
(declare-fun x48 () (_ BitVec 8))
(declare-fun x52 () (_ BitVec 8))
(declare-fun x53 () (_ BitVec 8))
(declare-fun x54 () (_ BitVec 8))
(declare-fun x56 () (_ BitVec 8))
(declare-fun x61 () (_ BitVec 8))
(declare-fun x65 () (_ BitVec 8))
(declare-fun x67 () (_ BitVec 8))
(declare-fun x68 () (_ BitVec 8))
(declare-fun x70 () (_ BitVec 8))
(declare-fun x71 () (_ BitVec 8))
(declare-fun x73 () (_ BitVec 8))
(declare-fun x74 () (_ BitVec 8))
(declare-fun x75 () (_ BitVec 8))
(declare-fun x78 () (_ BitVec 8))
(declare-fun x81 () (_ BitVec 8))
(declare-fun x82 () (_ BitVec 8))
(declare-fun x84 () (_ BitVec 8))
(declare-fun x86 () (_ BitVec 8))
(declare-fun x87 () (_ BitVec 8))
(assert (bvult x00 (_ bv9 8)))
(assert (bvult x02 (_ bv9 8)))
(assert (bvult x04 (_ bv9 8)))
(assert (bvult x07 (_ bv9 8)))
(assert (bvult x10 (_ bv9 8)))
(assert (bvult x13 (_ bv9 8)))
(assert (bvult x15 (_ bv9 8)))
(assert (bvult x16 (_ bv9 8)))
(assert (bvult x17 (_ bv9 8)))
(assert (bvult x18 (_ bv9 8)))
(assert (bvult x20 (_ bv9 8)))
(assert (bvult x21 (_ bv9 8)))
(assert (bvult x22 (_ bv9 8)))
(assert (bvult x24 (_ bv9 8)))
(assert (bvult x25 (_ bv9 8)))
(assert (bvult x26 (_ bv9 8)))
(assert (bvult x30 (_ bv9 8)))
(assert (bvult x32 (_ bv9 8)))
(assert (bvult x33 (_ bv9 8)))
(assert (bvult x36 (_ bv9 8)))
(assert (bvult x37 (_ bv9 8)))
(assert (bvult x40 (_ bv9 8)))
(assert (bvult x41 (_ bv9 8)))
(assert (bvult x43 (_ bv9 8)))
(assert (bvult x44 (_ bv9 8)))
(assert (bvult x45 (_ bv9 8)))
(assert (bvult x47 (_ bv9 8)))
(assert (bvult x48 (_ bv9 8)))
(assert (bvult x52 (_ bv9 8)))
(assert (bvult x53 (_ bv9 8)))
(assert (bvult x54 (_ bv9 8)))
(assert (bvult x56 (_ bv9 8)))
(assert (bvult x61 (_ bv9 8)))
(assert (bvult x65 (_ bv9 8)))
(assert (bvult x67 (_ bv9 8)))
(assert (bvult x68 (_ bv9 8)))
(assert (bvult x70 (_ bv9 8)))
(assert (bvult x71 (_ bv9 8)))
(assert (bvult x73 (_ bv9 8)))
(assert (bvult x74 (_ bv9 8)))
(assert (bvult x75 (_ bv9 8)))
(assert (bvult x78 (_ bv9 8)))
(assert (bvult x81 (_ bv9 8)))
(assert (bvult x82 (_ bv9 8)))
(assert (bvult x84 (_ bv9 8)))
(assert (bvult x86 (_ bv9 8)))
(assert (bvult x87 (_ bv9 8)))
(assert (not (= x00 (_ bv1 8))))
(assert (not (= x00 x02)))
(assert (not (= x00 (_ bv6 8))))
(assert (not (= x00 x04)))
(assert (not (= x00 (_ bv7 8))))
(assert (not (= x00 (_ bv5 8))))
(assert (not (= x00 x07)))
(assert (not (= x00 (_ bv4 8))))
(assert (not (= (_ bv1 8) x02)))
(assert (not (= (_ bv1 8) (_ bv6 8))))
(assert (not (= (_ bv1 8) x04)))
(assert (not (= (_ bv1 8) (_ bv7 8))))
(assert (not (= (_ bv1 8) (_ bv5 8))))
(assert (not (= (_ bv1 8) x07)))
(assert (not (= (_ bv1 8) (_ bv4 8))))
(assert (not (= x02 (_ bv6 8))))
(assert (not (= x02 x04)))
(assert (not (= x02 (_ bv7 8))))
(assert (not (= x02 (_ bv5 8))))
(assert (not (= x02 x07)))
(assert (not (= x02 (_ bv4 8))))
(assert (not (= (_ bv6 8) x04)))
(assert (not (= (_ bv6 8) (_ bv7 8))))
(assert (not (= (_ bv6 8) (_ bv5 8))))
(assert (not (= (_ bv6 8) x07)))
(assert (not (= (_ bv6 8) (_ bv4 8))))
(assert (not (= x04 (_ bv7 8))))
(assert (not (= x04 (_ bv5 8))))
(assert (not (= x04 x07)))
(assert (not (= x04 (_ bv4 8))))
(assert (not (= (_ bv7 8) (_ bv5 8))))
(assert (not (= (_ bv7 8) x07)))
(assert (not (= (_ bv7 8) (_ bv4 8))))
(assert (not (= (_ bv5 8) x07)))
(assert (not (= (_ bv5 8) (_ bv4 8))))
(assert (not (= x07 (_ bv4 8))))
(assert (not (= x10 (_ bv9 8))))
(assert (not (= x10 (_ bv8 8))))
(assert (not (= x10 x13)))
(assert (not (= x10 (_ bv5 8))))
(assert (not (= x10 x15)))
(assert (not (= x10 x16)))
(assert (not (= x10 x17)))
(assert (not (= x10 x18)))
(assert (not (= (_ bv9 8) (_ bv8 8))))
(assert (not (= (_ bv9 8) x13)))
(assert (not (= (_ bv9 8) (_ bv5 8))))
(assert (not (= (_ bv9 8) x15)))
(assert (not (= (_ bv9 8) x16)))
(assert (not (= (_ bv9 8) x17)))
(assert (not (= (_ bv9 8) x18)))
(assert (not (= (_ bv8 8) x13)))
(assert (not (= (_ bv8 8) (_ bv5 8))))
(assert (not (= (_ bv8 8) x15)))
(assert (not (= (_ bv8 8) x16)))
(assert (not (= (_ bv8 8) x17)))
(assert (not (= (_ bv8 8) x18)))
(assert (not (= x13 (_ bv5 8))))
(assert (not (= x13 x15)))
(assert (not (= x13 x16)))
(assert (not (= x13 x17)))
(assert (not (= x13 x18)))
(assert (not (= (_ bv5 8) x15)))
(assert (not (= (_ bv5 8) x16)))
(assert (not (= (_ bv5 8) x17)))
(assert (not (= (_ bv5 8) x18)))
(assert (not (= x15 x16)))
(assert (not (= x15 x17)))
(assert (not (= x15 x18)))
(assert (not (= x16 x17)))
(assert (not (= x16 x18)))
(assert (not (= x17 x18)))
(assert (not (= x20 x21)))
(assert (not (= x20 x22)))
(assert (not (= x20 (_ bv3 8))))
(assert (not (= x20 x24)))
(assert (not (= x20 x25)))
(assert (not (= x20 x26)))
(assert (not (= x20 (_ bv7 8))))
(assert (not (= x20 (_ bv2 8))))
(assert (not (= x21 x22)))
(assert (not (= x21 (_ bv3 8))))
(assert (not (= x21 x24)))
(assert (not (= x21 x25)))
(assert (not (= x21 x26)))
(assert (not (= x21 (_ bv7 8))))
(assert (not (= x21 (_ bv2 8))))
(assert (not (= x22 (_ bv3 8))))
(assert (not (= x22 x24)))
(assert (not (= x22 x25)))
(assert (not (= x22 x26)))
(assert (not (= x22 (_ bv7 8))))
(assert (not (= x22 (_ bv2 8))))
(assert (not (= (_ bv3 8) x24)))
(assert (not (= (_ bv3 8) x25)))
(assert (not (= (_ bv3 8) x26)))
(assert (not (= (_ bv3 8) (_ bv7 8))))
(assert (not (= (_ bv3 8) (_ bv2 8))))
(assert (not (= x24 x25)))
(assert (not (= x24 x26)))
(assert (not (= x24 (_ bv7 8))))
(assert (not (= x24 (_ bv2 8))))
(assert (not (= x25 x26)))
(assert (not (= x25 (_ bv7 8))))
(assert (not (= x25 (_ bv2 8))))
(assert (not (= x26 (_ bv7 8))))
(assert (not (= x26 (_ bv2 8))))
(assert (not (= (_ bv7 8) (_ bv2 8))))
(assert (not (= x30 (_ bv4 8))))
(assert (not (= x30 x32)))
(assert (not (= x30 x33)))
(assert (not (= x30 (_ bv3 8))))
(assert (not (= x30 (_ bv1 8))))
(assert (not (= x30 x36)))
(assert (not (= x30 x37)))
(assert (not (= x30 (_ bv5 8))))
(assert (not (= (_ bv4 8) x32)))
(assert (not (= (_ bv4 8) x33)))
(assert (not (= (_ bv4 8) (_ bv3 8))))
(assert (not (= (_ bv4 8) (_ bv1 8))))
(assert (not (= (_ bv4 8) x36)))
(assert (not (= (_ bv4 8) x37)))
(assert (not (= (_ bv4 8) (_ bv5 8))))
(assert (not (= x32 x33)))
(assert (not (= x32 (_ bv3 8))))
(assert (not (= x32 (_ bv1 8))))
(assert (not (= x32 x36)))
(assert (not (= x32 x37)))
(assert (not (= x32 (_ bv5 8))))
(assert (not (= x33 (_ bv3 8))))
(assert (not (= x33 (_ bv1 8))))
(assert (not (= x33 x36)))
(assert (not (= x33 x37)))
(assert (not (= x33 (_ bv5 8))))
(assert (not (= (_ bv3 8) (_ bv1 8))))
(assert (not (= (_ bv3 8) x36)))
(assert (not (= (_ bv3 8) x37)))
(assert (not (= (_ bv3 8) (_ bv5 8))))
(assert (not (= (_ bv1 8) x36)))
(assert (not (= (_ bv1 8) x37)))
(assert (not (= (_ bv1 8) (_ bv5 8))))
(assert (not (= x36 x37)))
(assert (not (= x36 (_ bv5 8))))
(assert (not (= x37 (_ bv5 8))))
(assert (not (= x40 x41)))
(assert (not (= x40 (_ bv6 8))))
(assert (not (= x40 x43)))
(assert (not (= x40 x44)))
(assert (not (= x40 x45)))
(assert (not (= x40 (_ bv7 8))))
(assert (not (= x40 x47)))
(assert (not (= x40 x48)))
(assert (not (= x41 (_ bv6 8))))
(assert (not (= x41 x43)))
(assert (not (= x41 x44)))
(assert (not (= x41 x45)))
(assert (not (= x41 (_ bv7 8))))
(assert (not (= x41 x47)))
(assert (not (= x41 x48)))
(assert (not (= (_ bv6 8) x43)))
(assert (not (= (_ bv6 8) x44)))
(assert (not (= (_ bv6 8) x45)))
(assert (not (= (_ bv6 8) (_ bv7 8))))
(assert (not (= (_ bv6 8) x47)))
(assert (not (= (_ bv6 8) x48)))
(assert (not (= x43 x44)))
(assert (not (= x43 x45)))
(assert (not (= x43 (_ bv7 8))))
(assert (not (= x43 x47)))
(assert (not (= x43 x48)))
(assert (not (= x44 x45)))
(assert (not (= x44 (_ bv7 8))))
(assert (not (= x44 x47)))
(assert (not (= x44 x48)))
(assert (not (= x45 (_ bv7 8))))
(assert (not (= x45 x47)))
(assert (not (= x45 x48)))
(assert (not (= (_ bv7 8) x47)))
(assert (not (= (_ bv7 8) x48)))
(assert (not (= x47 x48)))
(assert (not (= (_ bv8 8) (_ bv7 8))))
(assert (not (= (_ bv8 8) x52)))
(assert (not (= (_ bv8 8) x53)))
(assert (not (= (_ bv8 8) x54)))
(assert (not (= (_ bv8 8) (_ bv2 8))))
(assert (not (= (_ bv8 8) x56)))
(assert (not (= (_ bv8 8) (_ bv3 8))))
(assert (not (= (_ bv8 8) (_ bv9 8))))
(assert (not (= (_ bv7 8) x52)))
(assert (not (= (_ bv7 8) x53)))
(assert (not (= (_ bv7 8) x54)))
(assert (not (= (_ bv7 8) (_ bv2 8))))
(assert (not (= (_ bv7 8) x56)))
(assert (not (= (_ bv7 8) (_ bv3 8))))
(assert (not (= (_ bv7 8) (_ bv9 8))))
(assert (not (= x52 x53)))
(assert (not (= x52 x54)))
(assert (not (= x52 (_ bv2 8))))
(assert (not (= x52 x56)))
(assert (not (= x52 (_ bv3 8))))
(assert (not (= x52 (_ bv9 8))))
(assert (not (= x53 x54)))
(assert (not (= x53 (_ bv2 8))))
(assert (not (= x53 x56)))
(assert (not (= x53 (_ bv3 8))))
(assert (not (= x53 (_ bv9 8))))
(assert (not (= x54 (_ bv2 8))))
(assert (not (= x54 x56)))
(assert (not (= x54 (_ bv3 8))))
(assert (not (= x54 (_ bv9 8))))
(assert (not (= (_ bv2 8) x56)))
(assert (not (= (_ bv2 8) (_ bv3 8))))
(assert (not (= (_ bv2 8) (_ bv9 8))))
(assert (not (= x56 (_ bv3 8))))
(assert (not (= x56 (_ bv9 8))))
(assert (not (= (_ bv3 8) (_ bv9 8))))
(assert (not (= (_ bv1 8) x61)))
(assert (not (= (_ bv1 8) (_ bv5 8))))
(assert (not (= (_ bv1 8) (_ bv8 8))))
(assert (not (= (_ bv1 8) (_ bv2 8))))
(assert (not (= (_ bv1 8) x65)))
(assert (not (= (_ bv1 8) (_ bv9 8))))
(assert (not (= (_ bv1 8) x67)))
(assert (not (= (_ bv1 8) x68)))
(assert (not (= x61 (_ bv5 8))))
(assert (not (= x61 (_ bv8 8))))
(assert (not (= x61 (_ bv2 8))))
(assert (not (= x61 x65)))
(assert (not (= x61 (_ bv9 8))))
(assert (not (= x61 x67)))
(assert (not (= x61 x68)))
(assert (not (= (_ bv5 8) (_ bv8 8))))
(assert (not (= (_ bv5 8) (_ bv2 8))))
(assert (not (= (_ bv5 8) x65)))
(assert (not (= (_ bv5 8) (_ bv9 8))))
(assert (not (= (_ bv5 8) x67)))
(assert (not (= (_ bv5 8) x68)))
(assert (not (= (_ bv8 8) (_ bv2 8))))
(assert (not (= (_ bv8 8) x65)))
(assert (not (= (_ bv8 8) (_ bv9 8))))
(assert (not (= (_ bv8 8) x67)))
(assert (not (= (_ bv8 8) x68)))
(assert (not (= (_ bv2 8) x65)))
(assert (not (= (_ bv2 8) (_ bv9 8))))
(assert (not (= (_ bv2 8) x67)))
(assert (not (= (_ bv2 8) x68)))
(assert (not (= x65 (_ bv9 8))))
(assert (not (= x65 x67)))
(assert (not (= x65 x68)))
(assert (not (= (_ bv9 8) x67)))
(assert (not (= (_ bv9 8) x68)))
(assert (not (= x67 x68)))
(assert (not (= x70 x71)))
(assert (not (= x70 (_ bv9 8))))
(assert (not (= x70 x73)))
(assert (not (= x70 x74)))
(assert (not (= x70 x75)))
(assert (not (= x70 (_ bv2 8))))
(assert (not (= x70 (_ bv6 8))))
(assert (not (= x70 x78)))
(assert (not (= x71 (_ bv9 8))))
(assert (not (= x71 x73)))
(assert (not (= x71 x74)))
(assert (not (= x71 x75)))
(assert (not (= x71 (_ bv2 8))))
(assert (not (= x71 (_ bv6 8))))
(assert (not (= x71 x78)))
(assert (not (= (_ bv9 8) x73)))
(assert (not (= (_ bv9 8) x74)))
(assert (not (= (_ bv9 8) x75)))
(assert (not (= (_ bv9 8) (_ bv2 8))))
(assert (not (= (_ bv9 8) (_ bv6 8))))
(assert (not (= (_ bv9 8) x78)))
(assert (not (= x73 x74)))
(assert (not (= x73 x75)))
(assert (not (= x73 (_ bv2 8))))
(assert (not (= x73 (_ bv6 8))))
(assert (not (= x73 x78)))
(assert (not (= x74 x75)))
(assert (not (= x74 (_ bv2 8))))
(assert (not (= x74 (_ bv6 8))))
(assert (not (= x74 x78)))
(assert (not (= x75 (_ bv2 8))))
(assert (not (= x75 (_ bv6 8))))
(assert (not (= x75 x78)))
(assert (not (= (_ bv2 8) (_ bv6 8))))
(assert (not (= (_ bv2 8) x78)))
(assert (not (= (_ bv6 8) x78)))
(assert (not (= (_ bv3 8) x81)))
(assert (not (= (_ bv3 8) x82)))
(assert (not (= (_ bv3 8) (_ bv4 8))))
(assert (not (= (_ bv3 8) x84)))
(assert (not (= (_ bv3 8) (_ bv6 8))))
(assert (not (= (_ bv3 8) x86)))
(assert (not (= (_ bv3 8) x87)))
(assert (not (= (_ bv3 8) (_ bv8 8))))
(assert (not (= x81 x82)))
(assert (not (= x81 (_ bv4 8))))
(assert (not (= x81 x84)))
(assert (not (= x81 (_ bv6 8))))
(assert (not (= x81 x86)))
(assert (not (= x81 x87)))
(assert (not (= x81 (_ bv8 8))))
(assert (not (= x82 (_ bv4 8))))
(assert (not (= x82 x84)))
(assert (not (= x82 (_ bv6 8))))
(assert (not (= x82 x86)))
(assert (not (= x82 x87)))
(assert (not (= x82 (_ bv8 8))))
(assert (not (= (_ bv4 8) x84)))
(assert (not (= (_ bv4 8) (_ bv6 8))))
(assert (not (= (_ bv4 8) x86)))
(assert (not (= (_ bv4 8) x87)))
(assert (not (= (_ bv4 8) (_ bv8 8))))
(assert (not (= x84 (_ bv6 8))))
(assert (not (= x84 x86)))
(assert (not (= x84 x87)))
(assert (not (= x84 (_ bv8 8))))
(assert (not (= (_ bv6 8) x86)))
(assert (not (= (_ bv6 8) x87)))
(assert (not (= (_ bv6 8) (_ bv8 8))))
(assert (not (= x86 x87)))
(assert (not (= x86 (_ bv8 8))))
(assert (not (= x87 (_ bv8 8))))
(assert (not (= x00 x10)))
(assert (not (= x00 x20)))
(assert (not (= x00 x30)))
(assert (not (= x00 x40)))
(assert (not (= x00 (_ bv8 8))))
(assert (not (= x00 (_ bv1 8))))
(assert (not (= x00 x70)))
(assert (not (= x00 (_ bv3 8))))
(assert (not (= x10 x20)))
(assert (not (= x10 x30)))
(assert (not (= x10 x40)))
(assert (not (= x10 (_ bv8 8))))
(assert (not (= x10 (_ bv1 8))))
(assert (not (= x10 x70)))
(assert (not (= x10 (_ bv3 8))))
(assert (not (= x20 x30)))
(assert (not (= x20 x40)))
(assert (not (= x20 (_ bv8 8))))
(assert (not (= x20 (_ bv1 8))))
(assert (not (= x20 x70)))
(assert (not (= x20 (_ bv3 8))))
(assert (not (= x30 x40)))
(assert (not (= x30 (_ bv8 8))))
(assert (not (= x30 (_ bv1 8))))
(assert (not (= x30 x70)))
(assert (not (= x30 (_ bv3 8))))
(assert (not (= x40 (_ bv8 8))))
(assert (not (= x40 (_ bv1 8))))
(assert (not (= x40 x70)))
(assert (not (= x40 (_ bv3 8))))
(assert (not (= (_ bv8 8) (_ bv1 8))))
(assert (not (= (_ bv8 8) x70)))
(assert (not (= (_ bv8 8) (_ bv3 8))))
(assert (not (= (_ bv1 8) x70)))
(assert (not (= (_ bv1 8) (_ bv3 8))))
(assert (not (= x70 (_ bv3 8))))
(assert (not (= (_ bv1 8) (_ bv9 8))))
(assert (not (= (_ bv1 8) x21)))
(assert (not (= (_ bv1 8) (_ bv4 8))))
(assert (not (= (_ bv1 8) x41)))
(assert (not (= (_ bv1 8) (_ bv7 8))))
(assert (not (= (_ bv1 8) x61)))
(assert (not (= (_ bv1 8) x71)))
(assert (not (= (_ bv1 8) x81)))
(assert (not (= (_ bv9 8) x21)))
(assert (not (= (_ bv9 8) (_ bv4 8))))
(assert (not (= (_ bv9 8) x41)))
(assert (not (= (_ bv9 8) (_ bv7 8))))
(assert (not (= (_ bv9 8) x61)))
(assert (not (= (_ bv9 8) x71)))
(assert (not (= (_ bv9 8) x81)))
(assert (not (= x21 (_ bv4 8))))
(assert (not (= x21 x41)))
(assert (not (= x21 (_ bv7 8))))
(assert (not (= x21 x61)))
(assert (not (= x21 x71)))
(assert (not (= x21 x81)))
(assert (not (= (_ bv4 8) x41)))
(assert (not (= (_ bv4 8) (_ bv7 8))))
(assert (not (= (_ bv4 8) x61)))
(assert (not (= (_ bv4 8) x71)))
(assert (not (= (_ bv4 8) x81)))
(assert (not (= x41 (_ bv7 8))))
(assert (not (= x41 x61)))
(assert (not (= x41 x71)))
(assert (not (= x41 x81)))
(assert (not (= (_ bv7 8) x61)))
(assert (not (= (_ bv7 8) x71)))
(assert (not (= (_ bv7 8) x81)))
(assert (not (= x61 x71)))
(assert (not (= x61 x81)))
(assert (not (= x71 x81)))
(assert (not (= x02 (_ bv8 8))))
(assert (not (= x02 x22)))
(assert (not (= x02 x32)))
(assert (not (= x02 (_ bv6 8))))
(assert (not (= x02 x52)))
(assert (not (= x02 (_ bv5 8))))
(assert (not (= x02 (_ bv9 8))))
(assert (not (= x02 x82)))
(assert (not (= (_ bv8 8) x22)))
(assert (not (= (_ bv8 8) x32)))
(assert (not (= (_ bv8 8) (_ bv6 8))))
(assert (not (= (_ bv8 8) x52)))
(assert (not (= (_ bv8 8) (_ bv5 8))))
(assert (not (= (_ bv8 8) (_ bv9 8))))
(assert (not (= (_ bv8 8) x82)))
(assert (not (= x22 x32)))
(assert (not (= x22 (_ bv6 8))))
(assert (not (= x22 x52)))
(assert (not (= x22 (_ bv5 8))))
(assert (not (= x22 (_ bv9 8))))
(assert (not (= x22 x82)))
(assert (not (= x32 (_ bv6 8))))
(assert (not (= x32 x52)))
(assert (not (= x32 (_ bv5 8))))
(assert (not (= x32 (_ bv9 8))))
(assert (not (= x32 x82)))
(assert (not (= (_ bv6 8) x52)))
(assert (not (= (_ bv6 8) (_ bv5 8))))
(assert (not (= (_ bv6 8) (_ bv9 8))))
(assert (not (= (_ bv6 8) x82)))
(assert (not (= x52 (_ bv5 8))))
(assert (not (= x52 (_ bv9 8))))
(assert (not (= x52 x82)))
(assert (not (= (_ bv5 8) (_ bv9 8))))
(assert (not (= (_ bv5 8) x82)))
(assert (not (= (_ bv9 8) x82)))
(assert (not (= (_ bv6 8) x13)))
(assert (not (= (_ bv6 8) (_ bv3 8))))
(assert (not (= (_ bv6 8) x33)))
(assert (not (= (_ bv6 8) x43)))
(assert (not (= (_ bv6 8) x53)))
(assert (not (= (_ bv6 8) (_ bv8 8))))
(assert (not (= (_ bv6 8) x73)))
(assert (not (= (_ bv6 8) (_ bv4 8))))
(assert (not (= x13 (_ bv3 8))))
(assert (not (= x13 x33)))
(assert (not (= x13 x43)))
(assert (not (= x13 x53)))
(assert (not (= x13 (_ bv8 8))))
(assert (not (= x13 x73)))
(assert (not (= x13 (_ bv4 8))))
(assert (not (= (_ bv3 8) x33)))
(assert (not (= (_ bv3 8) x43)))
(assert (not (= (_ bv3 8) x53)))
(assert (not (= (_ bv3 8) (_ bv8 8))))
(assert (not (= (_ bv3 8) x73)))
(assert (not (= (_ bv3 8) (_ bv4 8))))
(assert (not (= x33 x43)))
(assert (not (= x33 x53)))
(assert (not (= x33 (_ bv8 8))))
(assert (not (= x33 x73)))
(assert (not (= x33 (_ bv4 8))))
(assert (not (= x43 x53)))
(assert (not (= x43 (_ bv8 8))))
(assert (not (= x43 x73)))
(assert (not (= x43 (_ bv4 8))))
(assert (not (= x53 (_ bv8 8))))
(assert (not (= x53 x73)))
(assert (not (= x53 (_ bv4 8))))
(assert (not (= (_ bv8 8) x73)))
(assert (not (= (_ bv8 8) (_ bv4 8))))
(assert (not (= x73 (_ bv4 8))))
(assert (not (= x04 (_ bv5 8))))
(assert (not (= x04 x24)))
(assert (not (= x04 (_ bv3 8))))
(assert (not (= x04 x44)))
(assert (not (= x04 x54)))
(assert (not (= x04 (_ bv2 8))))
(assert (not (= x04 x74)))
(assert (not (= x04 x84)))
(assert (not (= (_ bv5 8) x24)))
(assert (not (= (_ bv5 8) (_ bv3 8))))
(assert (not (= (_ bv5 8) x44)))
(assert (not (= (_ bv5 8) x54)))
(assert (not (= (_ bv5 8) (_ bv2 8))))
(assert (not (= (_ bv5 8) x74)))
(assert (not (= (_ bv5 8) x84)))
(assert (not (= x24 (_ bv3 8))))
(assert (not (= x24 x44)))
(assert (not (= x24 x54)))
(assert (not (= x24 (_ bv2 8))))
(assert (not (= x24 x74)))
(assert (not (= x24 x84)))
(assert (not (= (_ bv3 8) x44)))
(assert (not (= (_ bv3 8) x54)))
(assert (not (= (_ bv3 8) (_ bv2 8))))
(assert (not (= (_ bv3 8) x74)))
(assert (not (= (_ bv3 8) x84)))
(assert (not (= x44 x54)))
(assert (not (= x44 (_ bv2 8))))
(assert (not (= x44 x74)))
(assert (not (= x44 x84)))
(assert (not (= x54 (_ bv2 8))))
(assert (not (= x54 x74)))
(assert (not (= x54 x84)))
(assert (not (= (_ bv2 8) x74)))
(assert (not (= (_ bv2 8) x84)))
(assert (not (= x74 x84)))
(assert (not (= (_ bv7 8) x15)))
(assert (not (= (_ bv7 8) x25)))
(assert (not (= (_ bv7 8) (_ bv1 8))))
(assert (not (= (_ bv7 8) x45)))
(assert (not (= (_ bv7 8) (_ bv2 8))))
(assert (not (= (_ bv7 8) x65)))
(assert (not (= (_ bv7 8) x75)))
(assert (not (= (_ bv7 8) (_ bv6 8))))
(assert (not (= x15 x25)))
(assert (not (= x15 (_ bv1 8))))
(assert (not (= x15 x45)))
(assert (not (= x15 (_ bv2 8))))
(assert (not (= x15 x65)))
(assert (not (= x15 x75)))
(assert (not (= x15 (_ bv6 8))))
(assert (not (= x25 (_ bv1 8))))
(assert (not (= x25 x45)))
(assert (not (= x25 (_ bv2 8))))
(assert (not (= x25 x65)))
(assert (not (= x25 x75)))
(assert (not (= x25 (_ bv6 8))))
(assert (not (= (_ bv1 8) x45)))
(assert (not (= (_ bv1 8) (_ bv2 8))))
(assert (not (= (_ bv1 8) x65)))
(assert (not (= (_ bv1 8) x75)))
(assert (not (= (_ bv1 8) (_ bv6 8))))
(assert (not (= x45 (_ bv2 8))))
(assert (not (= x45 x65)))
(assert (not (= x45 x75)))
(assert (not (= x45 (_ bv6 8))))
(assert (not (= (_ bv2 8) x65)))
(assert (not (= (_ bv2 8) x75)))
(assert (not (= (_ bv2 8) (_ bv6 8))))
(assert (not (= x65 x75)))
(assert (not (= x65 (_ bv6 8))))
(assert (not (= x75 (_ bv6 8))))
(assert (not (= (_ bv5 8) x16)))
(assert (not (= (_ bv5 8) x26)))
(assert (not (= (_ bv5 8) x36)))
(assert (not (= (_ bv5 8) (_ bv7 8))))
(assert (not (= (_ bv5 8) x56)))
(assert (not (= (_ bv5 8) (_ bv9 8))))
(assert (not (= (_ bv5 8) (_ bv2 8))))
(assert (not (= (_ bv5 8) x86)))
(assert (not (= x16 x26)))
(assert (not (= x16 x36)))
(assert (not (= x16 (_ bv7 8))))
(assert (not (= x16 x56)))
(assert (not (= x16 (_ bv9 8))))
(assert (not (= x16 (_ bv2 8))))
(assert (not (= x16 x86)))
(assert (not (= x26 x36)))
(assert (not (= x26 (_ bv7 8))))
(assert (not (= x26 x56)))
(assert (not (= x26 (_ bv9 8))))
(assert (not (= x26 (_ bv2 8))))
(assert (not (= x26 x86)))
(assert (not (= x36 (_ bv7 8))))
(assert (not (= x36 x56)))
(assert (not (= x36 (_ bv9 8))))
(assert (not (= x36 (_ bv2 8))))
(assert (not (= x36 x86)))
(assert (not (= (_ bv7 8) x56)))
(assert (not (= (_ bv7 8) (_ bv9 8))))
(assert (not (= (_ bv7 8) (_ bv2 8))))
(assert (not (= (_ bv7 8) x86)))
(assert (not (= x56 (_ bv9 8))))
(assert (not (= x56 (_ bv2 8))))
(assert (not (= x56 x86)))
(assert (not (= (_ bv9 8) (_ bv2 8))))
(assert (not (= (_ bv9 8) x86)))
(assert (not (= (_ bv2 8) x86)))
(assert (not (= x07 x17)))
(assert (not (= x07 (_ bv7 8))))
(assert (not (= x07 x37)))
(assert (not (= x07 x47)))
(assert (not (= x07 (_ bv3 8))))
(assert (not (= x07 x67)))
(assert (not (= x07 (_ bv6 8))))
(assert (not (= x07 x87)))
(assert (not (= x17 (_ bv7 8))))
(assert (not (= x17 x37)))
(assert (not (= x17 x47)))
(assert (not (= x17 (_ bv3 8))))
(assert (not (= x17 x67)))
(assert (not (= x17 (_ bv6 8))))
(assert (not (= x17 x87)))
(assert (not (= (_ bv7 8) x37)))
(assert (not (= (_ bv7 8) x47)))
(assert (not (= (_ bv7 8) (_ bv3 8))))
(assert (not (= (_ bv7 8) x67)))
(assert (not (= (_ bv7 8) (_ bv6 8))))
(assert (not (= (_ bv7 8) x87)))
(assert (not (= x37 x47)))
(assert (not (= x37 (_ bv3 8))))
(assert (not (= x37 x67)))
(assert (not (= x37 (_ bv6 8))))
(assert (not (= x37 x87)))
(assert (not (= x47 (_ bv3 8))))
(assert (not (= x47 x67)))
(assert (not (= x47 (_ bv6 8))))
(assert (not (= x47 x87)))
(assert (not (= (_ bv3 8) x67)))
(assert (not (= (_ bv3 8) (_ bv6 8))))
(assert (not (= (_ bv3 8) x87)))
(assert (not (= x67 (_ bv6 8))))
(assert (not (= x67 x87)))
(assert (not (= (_ bv6 8) x87)))
(assert (not (= (_ bv4 8) x18)))
(assert (not (= (_ bv4 8) (_ bv2 8))))
(assert (not (= (_ bv4 8) (_ bv5 8))))
(assert (not (= (_ bv4 8) x48)))
(assert (not (= (_ bv4 8) (_ bv9 8))))
(assert (not (= (_ bv4 8) x68)))
(assert (not (= (_ bv4 8) x78)))
(assert (not (= (_ bv4 8) (_ bv8 8))))
(assert (not (= x18 (_ bv2 8))))
(assert (not (= x18 (_ bv5 8))))
(assert (not (= x18 x48)))
(assert (not (= x18 (_ bv9 8))))
(assert (not (= x18 x68)))
(assert (not (= x18 x78)))
(assert (not (= x18 (_ bv8 8))))
(assert (not (= (_ bv2 8) (_ bv5 8))))
(assert (not (= (_ bv2 8) x48)))
(assert (not (= (_ bv2 8) (_ bv9 8))))
(assert (not (= (_ bv2 8) x68)))
(assert (not (= (_ bv2 8) x78)))
(assert (not (= (_ bv2 8) (_ bv8 8))))
(assert (not (= (_ bv5 8) x48)))
(assert (not (= (_ bv5 8) (_ bv9 8))))
(assert (not (= (_ bv5 8) x68)))
(assert (not (= (_ bv5 8) x78)))
(assert (not (= (_ bv5 8) (_ bv8 8))))
(assert (not (= x48 (_ bv9 8))))
(assert (not (= x48 x68)))
(assert (not (= x48 x78)))
(assert (not (= x48 (_ bv8 8))))
(assert (not (= (_ bv9 8) x68)))
(assert (not (= (_ bv9 8) x78)))
(assert (not (= (_ bv9 8) (_ bv8 8))))
(assert (not (= x68 x78)))
(assert (not (= x68 (_ bv8 8))))
(assert (not (= x78 (_ bv8 8))))
(assert (not (= x00 (_ bv1 8))))
(assert (not (= x00 x02)))
(assert (not (= x00 x10)))
(assert (not (= x00 (_ bv9 8))))
(assert (not (= x00 (_ bv8 8))))
(assert (not (= x00 x20)))
(assert (not (= x00 x21)))
(assert (not (= x00 x22)))
(assert (not (= (_ bv1 8) x02)))
(assert (not (= (_ bv1 8) x10)))
(assert (not (= (_ bv1 8) (_ bv9 8))))
(assert (not (= (_ bv1 8) (_ bv8 8))))
(assert (not (= (_ bv1 8) x20)))
(assert (not (= (_ bv1 8) x21)))
(assert (not (= (_ bv1 8) x22)))
(assert (not (= x02 x10)))
(assert (not (= x02 (_ bv9 8))))
(assert (not (= x02 (_ bv8 8))))
(assert (not (= x02 x20)))
(assert (not (= x02 x21)))
(assert (not (= x02 x22)))
(assert (not (= x10 (_ bv9 8))))
(assert (not (= x10 (_ bv8 8))))
(assert (not (= x10 x20)))
(assert (not (= x10 x21)))
(assert (not (= x10 x22)))
(assert (not (= (_ bv9 8) (_ bv8 8))))
(assert (not (= (_ bv9 8) x20)))
(assert (not (= (_ bv9 8) x21)))
(assert (not (= (_ bv9 8) x22)))
(assert (not (= (_ bv8 8) x20)))
(assert (not (= (_ bv8 8) x21)))
(assert (not (= (_ bv8 8) x22)))
(assert (not (= x20 x21)))
(assert (not (= x20 x22)))
(assert (not (= x21 x22)))
(assert (not (= (_ bv6 8) x04)))
(assert (not (= (_ bv6 8) (_ bv7 8))))
(assert (not (= (_ bv6 8) x13)))
(assert (not (= (_ bv6 8) (_ bv5 8))))
(assert (not (= (_ bv6 8) x15)))
(assert (not (= (_ bv6 8) (_ bv3 8))))
(assert (not (= (_ bv6 8) x24)))
(assert (not (= (_ bv6 8) x25)))
(assert (not (= x04 (_ bv7 8))))
(assert (not (= x04 x13)))
(assert (not (= x04 (_ bv5 8))))
(assert (not (= x04 x15)))
(assert (not (= x04 (_ bv3 8))))
(assert (not (= x04 x24)))
(assert (not (= x04 x25)))
(assert (not (= (_ bv7 8) x13)))
(assert (not (= (_ bv7 8) (_ bv5 8))))
(assert (not (= (_ bv7 8) x15)))
(assert (not (= (_ bv7 8) (_ bv3 8))))
(assert (not (= (_ bv7 8) x24)))
(assert (not (= (_ bv7 8) x25)))
(assert (not (= x13 (_ bv5 8))))
(assert (not (= x13 x15)))
(assert (not (= x13 (_ bv3 8))))
(assert (not (= x13 x24)))
(assert (not (= x13 x25)))
(assert (not (= (_ bv5 8) x15)))
(assert (not (= (_ bv5 8) (_ bv3 8))))
(assert (not (= (_ bv5 8) x24)))
(assert (not (= (_ bv5 8) x25)))
(assert (not (= x15 (_ bv3 8))))
(assert (not (= x15 x24)))
(assert (not (= x15 x25)))
(assert (not (= (_ bv3 8) x24)))
(assert (not (= (_ bv3 8) x25)))
(assert (not (= x24 x25)))
(assert (not (= (_ bv5 8) x07)))
(assert (not (= (_ bv5 8) (_ bv4 8))))
(assert (not (= (_ bv5 8) x16)))
(assert (not (= (_ bv5 8) x17)))
(assert (not (= (_ bv5 8) x18)))
(assert (not (= (_ bv5 8) x26)))
(assert (not (= (_ bv5 8) (_ bv7 8))))
(assert (not (= (_ bv5 8) (_ bv2 8))))
(assert (not (= x07 (_ bv4 8))))
(assert (not (= x07 x16)))
(assert (not (= x07 x17)))
(assert (not (= x07 x18)))
(assert (not (= x07 x26)))
(assert (not (= x07 (_ bv7 8))))
(assert (not (= x07 (_ bv2 8))))
(assert (not (= (_ bv4 8) x16)))
(assert (not (= (_ bv4 8) x17)))
(assert (not (= (_ bv4 8) x18)))
(assert (not (= (_ bv4 8) x26)))
(assert (not (= (_ bv4 8) (_ bv7 8))))
(assert (not (= (_ bv4 8) (_ bv2 8))))
(assert (not (= x16 x17)))
(assert (not (= x16 x18)))
(assert (not (= x16 x26)))
(assert (not (= x16 (_ bv7 8))))
(assert (not (= x16 (_ bv2 8))))
(assert (not (= x17 x18)))
(assert (not (= x17 x26)))
(assert (not (= x17 (_ bv7 8))))
(assert (not (= x17 (_ bv2 8))))
(assert (not (= x18 x26)))
(assert (not (= x18 (_ bv7 8))))
(assert (not (= x18 (_ bv2 8))))
(assert (not (= x26 (_ bv7 8))))
(assert (not (= x26 (_ bv2 8))))
(assert (not (= (_ bv7 8) (_ bv2 8))))
(assert (not (= x30 (_ bv4 8))))
(assert (not (= x30 x32)))
(assert (not (= x30 x40)))
(assert (not (= x30 x41)))
(assert (not (= x30 (_ bv6 8))))
(assert (not (= x30 (_ bv8 8))))
(assert (not (= x30 (_ bv7 8))))
(assert (not (= x30 x52)))
(assert (not (= (_ bv4 8) x32)))
(assert (not (= (_ bv4 8) x40)))
(assert (not (= (_ bv4 8) x41)))
(assert (not (= (_ bv4 8) (_ bv6 8))))
(assert (not (= (_ bv4 8) (_ bv8 8))))
(assert (not (= (_ bv4 8) (_ bv7 8))))
(assert (not (= (_ bv4 8) x52)))
(assert (not (= x32 x40)))
(assert (not (= x32 x41)))
(assert (not (= x32 (_ bv6 8))))
(assert (not (= x32 (_ bv8 8))))
(assert (not (= x32 (_ bv7 8))))
(assert (not (= x32 x52)))
(assert (not (= x40 x41)))
(assert (not (= x40 (_ bv6 8))))
(assert (not (= x40 (_ bv8 8))))
(assert (not (= x40 (_ bv7 8))))
(assert (not (= x40 x52)))
(assert (not (= x41 (_ bv6 8))))
(assert (not (= x41 (_ bv8 8))))
(assert (not (= x41 (_ bv7 8))))
(assert (not (= x41 x52)))
(assert (not (= (_ bv6 8) (_ bv8 8))))
(assert (not (= (_ bv6 8) (_ bv7 8))))
(assert (not (= (_ bv6 8) x52)))
(assert (not (= (_ bv8 8) (_ bv7 8))))
(assert (not (= (_ bv8 8) x52)))
(assert (not (= (_ bv7 8) x52)))
(assert (not (= x33 (_ bv3 8))))
(assert (not (= x33 (_ bv1 8))))
(assert (not (= x33 x43)))
(assert (not (= x33 x44)))
(assert (not (= x33 x45)))
(assert (not (= x33 x53)))
(assert (not (= x33 x54)))
(assert (not (= x33 (_ bv2 8))))
(assert (not (= (_ bv3 8) (_ bv1 8))))
(assert (not (= (_ bv3 8) x43)))
(assert (not (= (_ bv3 8) x44)))
(assert (not (= (_ bv3 8) x45)))
(assert (not (= (_ bv3 8) x53)))
(assert (not (= (_ bv3 8) x54)))
(assert (not (= (_ bv3 8) (_ bv2 8))))
(assert (not (= (_ bv1 8) x43)))
(assert (not (= (_ bv1 8) x44)))
(assert (not (= (_ bv1 8) x45)))
(assert (not (= (_ bv1 8) x53)))
(assert (not (= (_ bv1 8) x54)))
(assert (not (= (_ bv1 8) (_ bv2 8))))
(assert (not (= x43 x44)))
(assert (not (= x43 x45)))
(assert (not (= x43 x53)))
(assert (not (= x43 x54)))
(assert (not (= x43 (_ bv2 8))))
(assert (not (= x44 x45)))
(assert (not (= x44 x53)))
(assert (not (= x44 x54)))
(assert (not (= x44 (_ bv2 8))))
(assert (not (= x45 x53)))
(assert (not (= x45 x54)))
(assert (not (= x45 (_ bv2 8))))
(assert (not (= x53 x54)))
(assert (not (= x53 (_ bv2 8))))
(assert (not (= x54 (_ bv2 8))))
(assert (not (= x36 x37)))
(assert (not (= x36 (_ bv5 8))))
(assert (not (= x36 (_ bv7 8))))
(assert (not (= x36 x47)))
(assert (not (= x36 x48)))
(assert (not (= x36 x56)))
(assert (not (= x36 (_ bv3 8))))
(assert (not (= x36 (_ bv9 8))))
(assert (not (= x37 (_ bv5 8))))
(assert (not (= x37 (_ bv7 8))))
(assert (not (= x37 x47)))
(assert (not (= x37 x48)))
(assert (not (= x37 x56)))
(assert (not (= x37 (_ bv3 8))))
(assert (not (= x37 (_ bv9 8))))
(assert (not (= (_ bv5 8) (_ bv7 8))))
(assert (not (= (_ bv5 8) x47)))
(assert (not (= (_ bv5 8) x48)))
(assert (not (= (_ bv5 8) x56)))
(assert (not (= (_ bv5 8) (_ bv3 8))))
(assert (not (= (_ bv5 8) (_ bv9 8))))
(assert (not (= (_ bv7 8) x47)))
(assert (not (= (_ bv7 8) x48)))
(assert (not (= (_ bv7 8) x56)))
(assert (not (= (_ bv7 8) (_ bv3 8))))
(assert (not (= (_ bv7 8) (_ bv9 8))))
(assert (not (= x47 x48)))
(assert (not (= x47 x56)))
(assert (not (= x47 (_ bv3 8))))
(assert (not (= x47 (_ bv9 8))))
(assert (not (= x48 x56)))
(assert (not (= x48 (_ bv3 8))))
(assert (not (= x48 (_ bv9 8))))
(assert (not (= x56 (_ bv3 8))))
(assert (not (= x56 (_ bv9 8))))
(assert (not (= (_ bv3 8) (_ bv9 8))))
(assert (not (= (_ bv1 8) x61)))
(assert (not (= (_ bv1 8) (_ bv5 8))))
(assert (not (= (_ bv1 8) x70)))
(assert (not (= (_ bv1 8) x71)))
(assert (not (= (_ bv1 8) (_ bv9 8))))
(assert (not (= (_ bv1 8) (_ bv3 8))))
(assert (not (= (_ bv1 8) x81)))
(assert (not (= (_ bv1 8) x82)))
(assert (not (= x61 (_ bv5 8))))
(assert (not (= x61 x70)))
(assert (not (= x61 x71)))
(assert (not (= x61 (_ bv9 8))))
(assert (not (= x61 (_ bv3 8))))
(assert (not (= x61 x81)))
(assert (not (= x61 x82)))
(assert (not (= (_ bv5 8) x70)))
(assert (not (= (_ bv5 8) x71)))
(assert (not (= (_ bv5 8) (_ bv9 8))))
(assert (not (= (_ bv5 8) (_ bv3 8))))
(assert (not (= (_ bv5 8) x81)))
(assert (not (= (_ bv5 8) x82)))
(assert (not (= x70 x71)))
(assert (not (= x70 (_ bv9 8))))
(assert (not (= x70 (_ bv3 8))))
(assert (not (= x70 x81)))
(assert (not (= x70 x82)))
(assert (not (= x71 (_ bv9 8))))
(assert (not (= x71 (_ bv3 8))))
(assert (not (= x71 x81)))
(assert (not (= x71 x82)))
(assert (not (= (_ bv9 8) (_ bv3 8))))
(assert (not (= (_ bv9 8) x81)))
(assert (not (= (_ bv9 8) x82)))
(assert (not (= (_ bv3 8) x81)))
(assert (not (= (_ bv3 8) x82)))
(assert (not (= x81 x82)))
(assert (not (= (_ bv8 8) (_ bv2 8))))
(assert (not (= (_ bv8 8) x65)))
(assert (not (= (_ bv8 8) x73)))
(assert (not (= (_ bv8 8) x74)))
(assert (not (= (_ bv8 8) x75)))
(assert (not (= (_ bv8 8) (_ bv4 8))))
(assert (not (= (_ bv8 8) x84)))
(assert (not (= (_ bv8 8) (_ bv6 8))))
(assert (not (= (_ bv2 8) x65)))
(assert (not (= (_ bv2 8) x73)))
(assert (not (= (_ bv2 8) x74)))
(assert (not (= (_ bv2 8) x75)))
(assert (not (= (_ bv2 8) (_ bv4 8))))
(assert (not (= (_ bv2 8) x84)))
(assert (not (= (_ bv2 8) (_ bv6 8))))
(assert (not (= x65 x73)))
(assert (not (= x65 x74)))
(assert (not (= x65 x75)))
(assert (not (= x65 (_ bv4 8))))
(assert (not (= x65 x84)))
(assert (not (= x65 (_ bv6 8))))
(assert (not (= x73 x74)))
(assert (not (= x73 x75)))
(assert (not (= x73 (_ bv4 8))))
(assert (not (= x73 x84)))
(assert (not (= x73 (_ bv6 8))))
(assert (not (= x74 x75)))
(assert (not (= x74 (_ bv4 8))))
(assert (not (= x74 x84)))
(assert (not (= x74 (_ bv6 8))))
(assert (not (= x75 (_ bv4 8))))
(assert (not (= x75 x84)))
(assert (not (= x75 (_ bv6 8))))
(assert (not (= (_ bv4 8) x84)))
(assert (not (= (_ bv4 8) (_ bv6 8))))
(assert (not (= x84 (_ bv6 8))))
(assert (not (= (_ bv9 8) x67)))
(assert (not (= (_ bv9 8) x68)))
(assert (not (= (_ bv9 8) (_ bv2 8))))
(assert (not (= (_ bv9 8) (_ bv6 8))))
(assert (not (= (_ bv9 8) x78)))
(assert (not (= (_ bv9 8) x86)))
(assert (not (= (_ bv9 8) x87)))
(assert (not (= (_ bv9 8) (_ bv8 8))))
(assert (not (= x67 x68)))
(assert (not (= x67 (_ bv2 8))))
(assert (not (= x67 (_ bv6 8))))
(assert (not (= x67 x78)))
(assert (not (= x67 x86)))
(assert (not (= x67 x87)))
(assert (not (= x67 (_ bv8 8))))
(assert (not (= x68 (_ bv2 8))))
(assert (not (= x68 (_ bv6 8))))
(assert (not (= x68 x78)))
(assert (not (= x68 x86)))
(assert (not (= x68 x87)))
(assert (not (= x68 (_ bv8 8))))
(assert (not (= (_ bv2 8) (_ bv6 8))))
(assert (not (= (_ bv2 8) x78)))
(assert (not (= (_ bv2 8) x86)))
(assert (not (= (_ bv2 8) x87)))
(assert (not (= (_ bv2 8) (_ bv8 8))))
(assert (not (= (_ bv6 8) x78)))
(assert (not (= (_ bv6 8) x86)))
(assert (not (= (_ bv6 8) x87)))
(assert (not (= (_ bv6 8) (_ bv8 8))))
(assert (not (= x78 x86)))
(assert (not (= x78 x87)))
(assert (not (= x78 (_ bv8 8))))
(assert (not (= x86 x87)))
(assert (not (= x86 (_ bv8 8))))
(assert (not (= x87 (_ bv8 8))))
(check-sat)
(exit)
